Using license file /home/anupa/gurobi.lic
Academic license - for non-commercial use only

Gurobi Optimizer version 9.0.0 build v9.0.0rc2 (linux64)
Optimize a model with 10 rows, 10 columns and 19 nonzeros
Model fingerprint: 0xa5cfcb24
Model has 1 general constraint
Variable types: 10 continuous, 0 integer (0 binary)
Coefficient statistics:
  Matrix range     [1e+00, 1e+02]
  Objective range  [1e+00, 1e+00]
  Bounds range     [1e+00, 6e+02]
  RHS range        [1e+00, 5e+01]

---------------------------------------------------------------------------
Multi-objectives: starting optimization with 4 objectives (3 combined) ...
---------------------------------------------------------------------------

Multi-objectives: applying initial presolve ...
---------------------------------------------------------------------------

Presolve removed 1 rows and 0 columns
Presolve time: 0.00s
Presolved: 9 rows and 10 columns
---------------------------------------------------------------------------

Multi-objectives: optimize objective 1 (tot_mem_p4) ...
---------------------------------------------------------------------------

Presolve removed 4 rows and 4 columns
Presolve time: 0.00s
Presolved: 5 rows, 6 columns, 12 nonzeros
Variable types: 5 continuous, 1 integer (1 binary)

Root relaxation: objective 1.019414e+02, 2 iterations, 0.00 seconds

    Nodes    |    Current Node    |     Objective Bounds      |     Work
 Expl Unexpl |  Obj  Depth IntInf | Incumbent    BestBd   Gap | It/Node Time

*    0     0               0     101.9414062  101.94141  0.00%     -    0s

Explored 0 nodes (2 simplex iterations) in 0.00 seconds
Thread count was 12 (of 12 available processors)

Solution count 1: 101.941 

Optimal solution found (tolerance 1.00e-04)
Best objective 1.019414062500e+02, best bound 1.019414062500e+02, gap 0.0000%
---------------------------------------------------------------------------

Multi-objectives: optimize objective 2 (p4_mem_load) ...
---------------------------------------------------------------------------


Loaded user MIP start with objective 101.941

Presolve removed 5 rows and 5 columns
Presolve time: 0.00s
Presolved: 5 rows, 5 columns, 13 nonzeros
Variable types: 4 continuous, 1 integer (1 binary)

Root relaxation: objective 5.097070e+01, 2 iterations, 0.00 seconds

    Nodes    |    Current Node    |     Objective Bounds      |     Work
 Expl Unexpl |  Obj  Depth IntInf | Incumbent    BestBd   Gap | It/Node Time

*    0     0               0      50.9707031   50.97070  0.00%     -    0s

Explored 0 nodes (2 simplex iterations) in 0.00 seconds
Thread count was 12 (of 12 available processors)

Solution count 1: 50.9707 

Optimal solution found (tolerance 1.00e-04)
Best objective 5.097070312500e+01, best bound 5.097070312500e+01, gap 0.0000%
---------------------------------------------------------------------------

Multi-objectives: optimize objective 3 (weighted) ...
---------------------------------------------------------------------------


Loaded user MIP start with objective 0


Explored 0 nodes (0 simplex iterations) in 0.00 seconds
Thread count was 1 (of 12 available processors)

Solution count 1: 0 

Optimal solution found (tolerance 1.00e-04)
Best objective 0.000000000000e+00, best bound 0.000000000000e+00, gap 0.0000%

---------------------------------------------------------------------------
Multi-objectives: solved in 0.00 seconds, solution count 2

--------------------------------------------------
Model update took: 3.075599670410156e-05 seconds
Model optimize took: 0.0025544166564941406 seconds
--------------------------------------------------

Solution quality statistics for model netmon :
  Maximum violation:
    Bound       : 0.00000000e+00
    Constraint  : 0.00000000e+00
    Integrality : 0.00000000e+00

Sketch (0) (cm: eps0: 0.0003125, del0: 0.05, min_mem: 33.98046875)
Par: 1, Rows: 3
0.500    0.500    
Total frac: 1.000

Device (0) p4_1:
Rows total: 1.5
Mem total: 50.970703125

Device (1) p4_2:
Rows total: 1.5
Mem total: 50.970703125
--------------------------------------------------

Throughput: 148.0 Mpps, ns per packet: 6.756756756756757
Resources: 2.873779296875

Sketch (0) (cm: eps0: 0.0003125, del0: 0.05, min_mem: 33.98046875)
Par: 1, Rows: 3
0.500    0.500    
Total frac: 1.000

Device (0) p4_1:
Rows total: 1.5
Mem total: 50.970703125
Throughput: 148.0

Device (1) p4_2:
Rows total: 1.5
Mem total: 50.970703125
Throughput: 148.0
--------------------------------------------------
